<?xml version="1.0" encoding="UTF-8"?><osil xmlns="os.optimizationservices.org" xmlns:xsi="http://www.w3.org/2001/XMLSchema-instance" xsi:schemaLocation="os.optimizationservices.org http://www.optimizationservices.org/schemas/2.0/OSiL.xsd"><instanceHeader><name>ex1266</name></instanceHeader><instanceData><variables numberOfVariables="180"><var name="x1" ub="5"/><var name="x2" ub="5"/><var name="x3" ub="5"/><var name="x4" ub="5"/><var name="x5" ub="5"/><var name="x6" ub="5"/><var name="x7" ub="5"/><var name="x8" ub="5"/><var name="x9" ub="5"/><var name="x10" ub="5"/><var name="x11" ub="5"/><var name="x12" ub="5"/><var name="x13" ub="5"/><var name="x14" ub="5"/><var name="x15" ub="5"/><var name="x16" ub="5"/><var name="x17" ub="5"/><var name="x18" ub="5"/><var name="x19" ub="5"/><var name="x20" ub="5"/><var name="x21" ub="5"/><var name="x22" ub="5"/><var name="x23" ub="5"/><var name="x24" ub="5"/><var name="x25" ub="5"/><var name="x26" ub="5"/><var name="x27" ub="5"/><var name="x28" ub="5"/><var name="x29" ub="5"/><var name="x30" ub="5"/><var name="x31" ub="5"/><var name="x32" ub="5"/><var name="x33" ub="5"/><var name="x34" ub="5"/><var name="x35" ub="5"/><var name="x36" ub="5"/><var name="b37" type="B" ub="1"/><var name="b38" type="B" ub="1"/><var name="b39" type="B" ub="1"/><var name="b40" type="B" ub="1"/><var name="b41" type="B" ub="1"/><var name="b42" type="B" ub="1"/><var name="b43" type="B" ub="1"/><var name="b44" type="B" ub="1"/><var name="b45" type="B" ub="1"/><var name="b46" type="B" ub="1"/><var name="b47" type="B" ub="1"/><var name="b48" type="B" ub="1"/><var name="b49" type="B" ub="1"/><var name="b50" type="B" ub="1"/><var name="b51" type="B" ub="1"/><var name="b52" type="B" ub="1"/><var name="b53" type="B" ub="1"/><var name="b54" type="B" ub="1"/><var name="b55" type="B" ub="1"/><var name="b56" type="B" ub="1"/><var name="b57" type="B" ub="1"/><var name="b58" type="B" ub="1"/><var name="b59" type="B" ub="1"/><var name="b60" type="B" ub="1"/><var name="b61" type="B" ub="1"/><var name="b62" type="B" ub="1"/><var name="b63" type="B" ub="1"/><var name="b64" type="B" ub="1"/><var name="b65" type="B" ub="1"/><var name="b66" type="B" ub="1"/><var name="b67" type="B" ub="1"/><var name="b68" type="B" ub="1"/><var name="b69" type="B" ub="1"/><var name="b70" type="B" ub="1"/><var name="b71" type="B" ub="1"/><var name="b72" type="B" ub="1"/><var name="b73" type="B" ub="1"/><var name="b74" type="B" ub="1"/><var name="b75" type="B" ub="1"/><var name="b76" type="B" ub="1"/><var name="b77" type="B" ub="1"/><var name="b78" type="B" ub="1"/><var name="b79" type="B" ub="1"/><var name="b80" type="B" ub="1"/><var name="b81" type="B" ub="1"/><var name="b82" type="B" ub="1"/><var name="b83" type="B" ub="1"/><var name="b84" type="B" ub="1"/><var name="b85" type="B" ub="1"/><var name="b86" type="B" ub="1"/><var name="b87" type="B" ub="1"/><var name="b88" type="B" ub="1"/><var name="b89" type="B" ub="1"/><var name="b90" type="B" ub="1"/><var name="b91" type="B" ub="1"/><var name="b92" type="B" ub="1"/><var name="b93" type="B" ub="1"/><var name="b94" type="B" ub="1"/><var name="b95" type="B" ub="1"/><var name="b96" type="B" ub="1"/><var name="b97" type="B" ub="1"/><var name="b98" type="B" ub="1"/><var name="b99" type="B" ub="1"/><var name="b100" type="B" ub="1"/><var name="b101" type="B" ub="1"/><var name="b102" type="B" ub="1"/><var name="b103" type="B" ub="1"/><var name="b104" type="B" ub="1"/><var name="b105" type="B" ub="1"/><var name="b106" type="B" ub="1"/><var name="b107" type="B" ub="1"/><var name="b108" type="B" ub="1"/><var name="b109" type="B" ub="1"/><var name="b110" type="B" ub="1"/><var name="b111" type="B" ub="1"/><var name="b112" type="B" ub="1"/><var name="b113" type="B" ub="1"/><var name="b114" type="B" ub="1"/><var name="b115" type="B" ub="1"/><var name="b116" type="B" ub="1"/><var name="b117" type="B" ub="1"/><var name="b118" type="B" ub="1"/><var name="b119" type="B" ub="1"/><var name="b120" type="B" ub="1"/><var name="b121" type="B" ub="1"/><var name="b122" type="B" ub="1"/><var name="b123" type="B" ub="1"/><var name="b124" type="B" ub="1"/><var name="b125" type="B" ub="1"/><var name="b126" type="B" ub="1"/><var name="b127" type="B" ub="1"/><var name="b128" type="B" ub="1"/><var name="b129" type="B" ub="1"/><var name="b130" type="B" ub="1"/><var name="b131" type="B" ub="1"/><var name="b132" type="B" ub="1"/><var name="b133" type="B" ub="1"/><var name="b134" type="B" ub="1"/><var name="b135" type="B" ub="1"/><var name="b136" type="B" ub="1"/><var name="b137" type="B" ub="1"/><var name="b138" type="B" ub="1"/><var name="b139" type="B" ub="1"/><var name="b140" type="B" ub="1"/><var name="b141" type="B" ub="1"/><var name="b142" type="B" ub="1"/><var name="b143" type="B" ub="1"/><var name="b144" type="B" ub="1"/><var name="b145" type="B" ub="1"/><var name="b146" type="B" ub="1"/><var name="b147" type="B" ub="1"/><var name="b148" type="B" ub="1"/><var name="b149" type="B" ub="1"/><var name="b150" type="B" ub="1"/><var name="x151" ub="15"/><var name="x152" ub="12"/><var name="x153" ub="8"/><var name="x154" ub="7"/><var name="x155" ub="4"/><var name="x156" ub="2"/><var name="b157" type="B" ub="1"/><var name="b158" type="B" ub="1"/><var name="b159" type="B" ub="1"/><var name="b160" type="B" ub="1"/><var name="b161" type="B" ub="1"/><var name="b162" type="B" ub="1"/><var name="b163" type="B" ub="1"/><var name="b164" type="B" ub="1"/><var name="b165" type="B" ub="1"/><var name="b166" type="B" ub="1"/><var name="b167" type="B" ub="1"/><var name="b168" type="B" ub="1"/><var name="b169" type="B" ub="1"/><var name="b170" type="B" ub="1"/><var name="b171" type="B" ub="1"/><var name="b172" type="B" ub="1"/><var name="b173" type="B" ub="1"/><var name="b174" type="B" ub="1"/><var name="b175" type="B" ub="1"/><var name="b176" type="B" ub="1"/><var name="b177" type="B" ub="1"/><var name="b178" type="B" ub="1"/><var name="b179" type="B" ub="1"/><var name="b180" type="B" ub="1"/></variables><objectives><obj maxOrMin="min" name="defObj_objvar" numberOfObjCoef="11"><coef idx="144">.1</coef><coef idx="145">.2</coef><coef idx="146">.3</coef><coef idx="147">.4</coef><coef idx="148">.5</coef><coef idx="150">1</coef><coef idx="151">1</coef><coef idx="152">1</coef><coef idx="153">1</coef><coef idx="154">1</coef><coef idx="155">1</coef></obj></objectives><constraints numberOfConstraints="95"><con name="e2" lb="8"/><con name="e3" lb="16"/><con name="e4" lb="12"/><con name="e5" lb="7"/><con name="e6" lb="14"/><con name="e7" lb="16"/><con name="e8" ub="0"/><con name="e9" ub="0"/><con name="e10" ub="0"/><con name="e11" ub="0"/><con name="e12" ub="0"/><con name="e13" ub="0"/><con name="e14" ub="0"/><con name="e15" ub="0"/><con name="e16" ub="0"/><con name="e17" ub="0"/><con name="e18" ub="0"/><con name="e19" ub="0"/><con name="e20" ub="0"/><con name="e21" ub="0"/><con name="e22" ub="0"/><con name="e23" ub="0"/><con name="e24" ub="0"/><con name="e25" ub="0"/><con name="e26" ub="0"/><con name="e27" ub="0"/><con name="e28" ub="0"/><con name="e29" ub="0"/><con name="e30" ub="0"/><con name="e31" ub="0"/><con name="e32" ub="0"/><con name="e33" ub="0"/><con name="e34" ub="0"/><con name="e35" ub="0"/><con name="e36" ub="0"/><con name="e37" ub="0"/><con name="e38" ub="0"/><con name="e39" ub="0"/><con name="e40" ub="0"/><con name="e41" ub="0"/><con name="e42" ub="0"/><con name="e43" ub="0"/><con name="e44" lb="16"/><con name="e45" ub="0"/><con name="e46" ub="0"/><con name="e47" ub="0"/><con name="e48" ub="0"/><con name="e49" ub="0"/><con name="e50" ub="0"/><con name="e51" ub="0"/><con name="e52" ub="0"/><con name="e53" ub="0"/><con name="e54" ub="0"/><con name="e55" lb="0" ub="0"/><con name="e56" lb="0" ub="0"/><con name="e57" lb="0" ub="0"/><con name="e58" lb="0" ub="0"/><con name="e59" lb="0" ub="0"/><con name="e60" lb="0" ub="0"/><con name="e61" lb="0" ub="0"/><con name="e62" lb="0" ub="0"/><con name="e63" lb="0" ub="0"/><con name="e64" lb="0" ub="0"/><con name="e65" lb="0" ub="0"/><con name="e66" lb="0" ub="0"/><con name="e67" lb="0" ub="0"/><con name="e68" lb="0" ub="0"/><con name="e69" lb="0" ub="0"/><con name="e70" lb="0" ub="0"/><con name="e71" lb="0" ub="0"/><con name="e72" lb="0" ub="0"/><con name="e73" lb="0" ub="0"/><con name="e74" lb="0" ub="0"/><con name="e75" lb="0" ub="0"/><con name="e76" lb="0" ub="0"/><con name="e77" lb="0" ub="0"/><con name="e78" lb="0" ub="0"/><con name="e79" lb="0" ub="0"/><con name="e80" lb="0" ub="0"/><con name="e81" lb="0" ub="0"/><con name="e82" lb="0" ub="0"/><con name="e83" lb="0" ub="0"/><con name="e84" lb="0" ub="0"/><con name="e85" lb="0" ub="0"/><con name="e86" lb="0" ub="0"/><con name="e87" lb="0" ub="0"/><con name="e88" lb="0" ub="0"/><con name="e89" lb="0" ub="0"/><con name="e90" lb="0" ub="0"/><con name="e91" lb="0" ub="0"/><con name="e92" lb="0" ub="0"/><con name="e93" lb="0" ub="0"/><con name="e94" lb="0" ub="0"/><con name="e95" lb="0" ub="0"/><con name="e96" lb="0" ub="0"/></constraints><linearConstraintCoefficients numberOfValues="392"><start><el mult="7">0</el><el mult="24" incr="7">7</el><el mult="12" incr="2">170</el><el mult="11" incr="2">198</el><el mult="36" incr="4">222</el><el mult="6" incr="5">367</el></start><colIdx><el mult="6" incr="6">0</el><el>144</el><el mult="6" incr="6">1</el><el>145</el><el mult="6" incr="6">2</el><el>146</el><el mult="6" incr="6">3</el><el>147</el><el mult="6" incr="6">4</el><el>148</el><el mult="6" incr="6">5</el><el>149</el><el mult="6" incr="6">0</el><el>144</el><el mult="6" incr="6">1</el><el>145</el><el mult="6" incr="6">2</el><el>146</el><el mult="6" incr="6">3</el><el>147</el><el mult="6" incr="6">4</el><el>148</el><el mult="6" incr="6">5</el><el>149</el><el mult="6" incr="6">0</el><el>144</el><el mult="6" incr="6">1</el><el>145</el><el mult="6" incr="6">2</el><el>146</el><el mult="6" incr="6">3</el><el>147</el><el mult="6" incr="6">4</el><el>148</el><el mult="6" incr="6">5</el><el>149</el><el mult="6" incr="6">0</el><el>144</el><el mult="6" incr="6">1</el><el>145</el><el mult="6" incr="6">2</el><el>146</el><el mult="6" incr="6">3</el><el>147</el><el mult="6" incr="6">4</el><el>148</el><el mult="6" incr="6">5</el><el>149</el><el>144</el><el>150</el><el>145</el><el>151</el><el>146</el><el>152</el><el>147</el><el>153</el><el>148</el><el>154</el><el>149</el><el>155</el><el>144</el><el>150</el><el>145</el><el>151</el><el>146</el><el>152</el><el>147</el><el>153</el><el>148</el><el>154</el><el>149</el><el>155</el><el mult="6" incr="1">150</el><el>144</el><el mult="2">145</el><el mult="2">146</el><el mult="2">147</el><el mult="2">148</el><el mult="3" incr="1">149</el><el>151</el><el mult="2">152</el><el mult="2">153</el><el mult="2">154</el><el>155</el><el>0</el><el mult="3" incr="1">36</el><el>1</el><el mult="3" incr="1">39</el><el>2</el><el mult="3" incr="1">42</el><el>3</el><el mult="3" incr="1">45</el><el>4</el><el mult="3" incr="1">48</el><el>5</el><el mult="3" incr="1">51</el><el>6</el><el mult="3" incr="1">54</el><el>7</el><el mult="3" incr="1">57</el><el>8</el><el mult="3" incr="1">60</el><el>9</el><el mult="3" incr="1">63</el><el>10</el><el mult="3" incr="1">66</el><el>11</el><el mult="3" incr="1">69</el><el>12</el><el mult="3" incr="1">72</el><el>13</el><el mult="3" incr="1">75</el><el>14</el><el mult="3" incr="1">78</el><el>15</el><el mult="3" incr="1">81</el><el>16</el><el mult="3" incr="1">84</el><el>17</el><el mult="3" incr="1">87</el><el>18</el><el mult="3" incr="1">90</el><el>19</el><el mult="3" incr="1">93</el><el>20</el><el mult="3" incr="1">96</el><el>21</el><el mult="3" incr="1">99</el><el>22</el><el mult="3" incr="1">102</el><el>23</el><el mult="3" incr="1">105</el><el>24</el><el mult="3" incr="1">108</el><el>25</el><el mult="3" incr="1">111</el><el>26</el><el mult="3" incr="1">114</el><el>27</el><el mult="3" incr="1">117</el><el>28</el><el mult="3" incr="1">120</el><el>29</el><el mult="3" incr="1">123</el><el>30</el><el mult="3" incr="1">126</el><el>31</el><el mult="3" incr="1">129</el><el>32</el><el mult="3" incr="1">132</el><el>33</el><el mult="3" incr="1">135</el><el>34</el><el mult="3" incr="1">138</el><el>35</el><el mult="3" incr="1">141</el><el>150</el><el mult="4" incr="1">156</el><el>151</el><el mult="4" incr="1">160</el><el>152</el><el mult="4" incr="1">164</el><el>153</el><el mult="4" incr="1">168</el><el>154</el><el mult="4" incr="1">172</el><el>155</el><el mult="4" incr="1">176</el></colIdx><value><el>-3.3e2</el><el>-3.6e2</el><el>-3.8e2</el><el>-4.3e2</el><el>-4.9e2</el><el>-5.3e2</el><el>2.1e3</el><el>-3.3e2</el><el>-3.6e2</el><el>-3.8e2</el><el>-4.3e2</el><el>-4.9e2</el><el>-5.3e2</el><el>2.1e3</el><el>-3.3e2</el><el>-3.6e2</el><el>-3.8e2</el><el>-4.3e2</el><el>-4.9e2</el><el>-5.3e2</el><el>2.1e3</el><el>-3.3e2</el><el>-3.6e2</el><el>-3.8e2</el><el>-4.3e2</el><el>-4.9e2</el><el>-5.3e2</el><el>2.1e3</el><el>-3.3e2</el><el>-3.6e2</el><el>-3.8e2</el><el>-4.3e2</el><el>-4.9e2</el><el>-5.3e2</el><el>2.1e3</el><el>-3.3e2</el><el>-3.6e2</el><el>-3.8e2</el><el>-4.3e2</el><el>-4.9e2</el><el>-5.3e2</el><el>2.1e3</el><el>3.3e2</el><el>3.6e2</el><el>3.8e2</el><el>4.3e2</el><el>4.9e2</el><el>5.3e2</el><el>-2.2e3</el><el>3.3e2</el><el>3.6e2</el><el>3.8e2</el><el>4.3e2</el><el>4.9e2</el><el>5.3e2</el><el>-2.2e3</el><el>3.3e2</el><el>3.6e2</el><el>3.8e2</el><el>4.3e2</el><el>4.9e2</el><el>5.3e2</el><el>-2.2e3</el><el>3.3e2</el><el>3.6e2</el><el>3.8e2</el><el>4.3e2</el><el>4.9e2</el><el>5.3e2</el><el>-2.2e3</el><el>3.3e2</el><el>3.6e2</el><el>3.8e2</el><el>4.3e2</el><el>4.9e2</el><el>5.3e2</el><el>-2.2e3</el><el>3.3e2</el><el>3.6e2</el><el>3.8e2</el><el>4.3e2</el><el>4.9e2</el><el>5.3e2</el><el>-2.2e3</el><el mult="6">-1</el><el>1</el><el mult="6">-1</el><el>1</el><el mult="6">-1</el><el>1</el><el mult="6">-1</el><el>1</el><el mult="6">-1</el><el>1</el><el mult="6">-1</el><el mult="7">1</el><el>-5</el><el mult="6">1</el><el>-5</el><el mult="6">1</el><el>-5</el><el mult="6">1</el><el>-5</el><el mult="6">1</el><el>-5</el><el mult="6">1</el><el>-5</el><el>1</el><el>-1</el><el>1</el><el>-1</el><el>1</el><el>-1</el><el>1</el><el>-1</el><el>1</el><el>-1</el><el>1</el><el>-1</el><el>-15</el><el>1</el><el>-12</el><el>1</el><el>-8</el><el>1</el><el>-7</el><el>1</el><el>-4</el><el>1</el><el>-2</el><el mult="7">1</el><el>-1</el><el>1</el><el>-1</el><el>1</el><el>-1</el><el>1</el><el>-1</el><el>1</el><el>-1</el><el>1</el><el>-1</el><el>1</el><el>-1</el><el>1</el><el>-1</el><el>1</el><el>-1</el><el>1</el><el>-1</el><el mult="2">1</el><el>-1</el><el>-2</el><el>-4</el><el>1</el><el>-1</el><el>-2</el><el>-4</el><el>1</el><el>-1</el><el>-2</el><el>-4</el><el>1</el><el>-1</el><el>-2</el><el>-4</el><el>1</el><el>-1</el><el>-2</el><el>-4</el><el>1</el><el>-1</el><el>-2</el><el>-4</el><el>1</el><el>-1</el><el>-2</el><el>-4</el><el>1</el><el>-1</el><el>-2</el><el>-4</el><el>1</el><el>-1</el><el>-2</el><el>-4</el><el>1</el><el>-1</el><el>-2</el><el>-4</el><el>1</el><el>-1</el><el>-2</el><el>-4</el><el>1</el><el>-1</el><el>-2</el><el>-4</el><el>1</el><el>-1</el><el>-2</el><el>-4</el><el>1</el><el>-1</el><el>-2</el><el>-4</el><el>1</el><el>-1</el><el>-2</el><el>-4</el><el>1</el><el>-1</el><el>-2</el><el>-4</el><el>1</el><el>-1</el><el>-2</el><el>-4</el><el>1</el><el>-1</el><el>-2</el><el>-4</el><el>1</el><el>-1</el><el>-2</el><el>-4</el><el>1</el><el>-1</el><el>-2</el><el>-4</el><el>1</el><el>-1</el><el>-2</el><el>-4</el><el>1</el><el>-1</el><el>-2</el><el>-4</el><el>1</el><el>-1</el><el>-2</el><el>-4</el><el>1</el><el>-1</el><el>-2</el><el>-4</el><el>1</el><el>-1</el><el>-2</el><el>-4</el><el>1</el><el>-1</el><el>-2</el><el>-4</el><el>1</el><el>-1</el><el>-2</el><el>-4</el><el>1</el><el>-1</el><el>-2</el><el>-4</el><el>1</el><el>-1</el><el>-2</el><el>-4</el><el>1</el><el>-1</el><el>-2</el><el>-4</el><el>1</el><el>-1</el><el>-2</el><el>-4</el><el>1</el><el>-1</el><el>-2</el><el>-4</el><el>1</el><el>-1</el><el>-2</el><el>-4</el><el>1</el><el>-1</el><el>-2</el><el>-4</el><el>1</el><el>-1</el><el>-2</el><el>-4</el><el>1</el><el>-1</el><el>-2</el><el>-4</el><el>1</el><el>-1</el><el>-2</el><el>-4</el><el>-8</el><el>1</el><el>-1</el><el>-2</el><el>-4</el><el>-8</el><el>1</el><el>-1</el><el>-2</el><el>-4</el><el>-8</el><el>1</el><el>-1</el><el>-2</el><el>-4</el><el>-8</el><el>1</el><el>-1</el><el>-2</el><el>-4</el><el>-8</el><el>1</el><el>-1</el><el>-2</el><el>-4</el><el>-8</el></value></linearConstraintCoefficients><quadraticCoefficients numberOfQuadraticTerms="36"><qTerm idx="0" idxOne="0" idxTwo="150" coef="1"/><qTerm idx="0" idxOne="1" idxTwo="151" coef="1"/><qTerm idx="0" idxOne="2" idxTwo="152" coef="1"/><qTerm idx="0" idxOne="3" idxTwo="153" coef="1"/><qTerm idx="0" idxOne="4" idxTwo="154" coef="1"/><qTerm idx="0" idxOne="5" idxTwo="155" coef="1"/><qTerm idx="1" idxOne="6" idxTwo="150" coef="1"/><qTerm idx="1" idxOne="7" idxTwo="151" coef="1"/><qTerm idx="1" idxOne="8" idxTwo="152" coef="1"/><qTerm idx="1" idxOne="9" idxTwo="153" coef="1"/><qTerm idx="1" idxOne="10" idxTwo="154" coef="1"/><qTerm idx="1" idxOne="11" idxTwo="155" coef="1"/><qTerm idx="2" idxOne="12" idxTwo="150" coef="1"/><qTerm idx="2" idxOne="13" idxTwo="151" coef="1"/><qTerm idx="2" idxOne="14" idxTwo="152" coef="1"/><qTerm idx="2" idxOne="15" idxTwo="153" coef="1"/><qTerm idx="2" idxOne="16" idxTwo="154" coef="1"/><qTerm idx="2" idxOne="17" idxTwo="155" coef="1"/><qTerm idx="3" idxOne="18" idxTwo="150" coef="1"/><qTerm idx="3" idxOne="19" idxTwo="151" coef="1"/><qTerm idx="3" idxOne="20" idxTwo="152" coef="1"/><qTerm idx="3" idxOne="21" idxTwo="153" coef="1"/><qTerm idx="3" idxOne="22" idxTwo="154" coef="1"/><qTerm idx="3" idxOne="23" idxTwo="155" coef="1"/><qTerm idx="4" idxOne="24" idxTwo="150" coef="1"/><qTerm idx="4" idxOne="25" idxTwo="151" coef="1"/><qTerm idx="4" idxOne="26" idxTwo="152" coef="1"/><qTerm idx="4" idxOne="27" idxTwo="153" coef="1"/><qTerm idx="4" idxOne="28" idxTwo="154" coef="1"/><qTerm idx="4" idxOne="29" idxTwo="155" coef="1"/><qTerm idx="5" idxOne="30" idxTwo="150" coef="1"/><qTerm idx="5" idxOne="31" idxTwo="151" coef="1"/><qTerm idx="5" idxOne="32" idxTwo="152" coef="1"/><qTerm idx="5" idxOne="33" idxTwo="153" coef="1"/><qTerm idx="5" idxOne="34" idxTwo="154" coef="1"/><qTerm idx="5" idxOne="35" idxTwo="155" coef="1"/></quadraticCoefficients></instanceData></osil>